# Solution for model MaxAlag
# Objective value = 0
TheMaxAlag 0
x(1,1,1) 0
x(1,2,1) 0
x(2,1,1) 1
x(2,2,1) 0
x(3,1,1) 0
x(3,2,1) 0
x(4,1,1) 0
x(4,2,1) 1
x(1,1,2) 1
x(1,2,2) 0
x(2,1,2) 0
x(2,2,2) 0
x(3,1,2) 0
x(3,2,2) 1
x(4,1,2) 0
x(4,2,2) 0
